p cnf 245 2030
1 2 3 4 5 6 7 0
8 9 10 11 12 13 14 0
15 16 17 18 19 20 21 0
22 23 24 25 26 27 28 0
29 30 31 32 33 34 35 0
36 37 38 39 40 41 42 0
43 44 45 46 47 48 49 0
50 51 52 53 54 55 56 0
57 58 59 60 61 62 63 0
64 65 66 67 68 69 70 0
71 72 73 74 75 76 77 0
78 79 80 81 82 83 84 0
85 86 87 88 89 90 91 0
92 93 94 95 96 97 98 0
99 100 101 102 103 104 105 0
106 107 108 109 110 111 112 0
113 114 115 116 117 118 119 0
120 121 122 123 124 125 126 0
127 128 129 130 131 132 133 0
134 135 136 137 138 139 140 0
141 142 143 144 145 146 147 0
148 149 150 151 152 153 154 0
155 156 157 158 159 160 161 0
162 163 164 165 166 167 168 0
169 170 171 172 173 174 175 0
176 177 178 179 180 181 182 0
183 184 185 186 187 188 189 0
190 191 192 193 194 195 196 0
197 198 199 200 201 202 203 0
204 205 206 207 208 209 210 0
211 212 213 214 215 216 217 0
218 219 220 221 222 223 224 0
225 226 227 228 229 230 231 0
232 233 234 235 236 237 238 0
239 240 241 242 243 244 245 0
-1 -8 0
-2 -9 0
-3 -10 0
-4 -11 0
-5 -12 0
-6 -13 0
-7 -14 0
-1 -50 0
-2 -51 0
-3 -52 0
-4 -53 0
-5 -54 0
-6 -55 0
-7 -56 0
-1 -57 0
-2 -58 0
-3 -59 0
-4 -60 0
-5 -61 0
-6 -62 0
-7 -63 0
-1 -78 0
-2 -79 0
-3 -80 0
-4 -81 0
-5 -82 0
-6 -83 0
-7 -84 0
-1 -85 0
-2 -86 0
-3 -87 0
-4 -88 0
-5 -89 0
-6 -90 0
-7 -91 0
-1 -99 0
-2 -100 0
-3 -101 0
-4 -102 0
-5 -103 0
-6 -104 0
-7 -105 0
-1 -113 0
-2 -114 0
-3 -115 0
-4 -116 0
-5 -117 0
-6 -118 0
-7 -119 0
-1 -120 0
-2 -121 0
-3 -122 0
-4 -123 0
-5 -124 0
-6 -125 0
-7 -126 0
-1 -127 0
-2 -128 0
-3 -129 0
-4 -130 0
-5 -131 0
-6 -132 0
-7 -133 0
-1 -162 0
-2 -163 0
-3 -164 0
-4 -165 0
-5 -166 0
-6 -167 0
-7 -168 0
-1 -169 0
-2 -170 0
-3 -171 0
-4 -172 0
-5 -173 0
-6 -174 0
-7 -175 0
-1 -176 0
-2 -177 0
-3 -178 0
-4 -179 0
-5 -180 0
-6 -181 0
-7 -182 0
-1 -204 0
-2 -205 0
-3 -206 0
-4 -207 0
-5 -208 0
-6 -209 0
-7 -210 0
-1 -211 0
-2 -212 0
-3 -213 0
-4 -214 0
-5 -215 0
-6 -216 0
-7 -217 0
-1 -225 0
-2 -226 0
-3 -227 0
-4 -228 0
-5 -229 0
-6 -230 0
-7 -231 0
-1 -239 0
-2 -240 0
-3 -241 0
-4 -242 0
-5 -243 0
-6 -244 0
-7 -245 0
-8 -15 0
-9 -16 0
-10 -17 0
-11 -18 0
-12 -19 0
-13 -20 0
-14 -21 0
-8 -22 0
-9 -23 0
-10 -24 0
-11 -25 0
-12 -26 0
-13 -27 0
-14 -28 0
-8 -36 0
-9 -37 0
-10 -38 0
-11 -39 0
-12 -40 0
-13 -41 0
-14 -42 0
-8 -78 0
-9 -79 0
-10 -80 0
-11 -81 0
-12 -82 0
-13 -83 0
-14 -84 0
-8 -85 0
-9 -86 0
-10 -87 0
-11 -88 0
-12 -89 0
-13 -90 0
-14 -91 0
-8 -92 0
-9 -93 0
-10 -94 0
-11 -95 0
-12 -96 0
-13 -97 0
-14 -98 0
-8 -113 0
-9 -114 0
-10 -115 0
-11 -116 0
-12 -117 0
-13 -118 0
-14 -119 0
-8 -120 0
-9 -121 0
-10 -122 0
-11 -123 0
-12 -124 0
-13 -125 0
-14 -126 0
-8 -148 0
-9 -149 0
-10 -150 0
-11 -151 0
-12 -152 0
-13 -153 0
-14 -154 0
-8 -183 0
-9 -184 0
-10 -185 0
-11 -186 0
-12 -187 0
-13 -188 0
-14 -189 0
-8 -190 0
-9 -191 0
-10 -192 0
-11 -193 0
-12 -194 0
-13 -195 0
-14 -196 0
-8 -225 0
-9 -226 0
-10 -227 0
-11 -228 0
-12 -229 0
-13 -230 0
-14 -231 0
-8 -239 0
-9 -240 0
-10 -241 0
-11 -242 0
-12 -243 0
-13 -244 0
-14 -245 0
-15 -22 0
-16 -23 0
-17 -24 0
-18 -25 0
-19 -26 0
-20 -27 0
-21 -28 0
-15 -50 0
-16 -51 0
-17 -52 0
-18 -53 0
-19 -54 0
-20 -55 0
-21 -56 0
-15 -64 0
-16 -65 0
-17 -66 0
-18 -67 0
-19 -68 0
-20 -69 0
-21 -70 0
-15 -71 0
-16 -72 0
-17 -73 0
-18 -74 0
-19 -75 0
-20 -76 0
-21 -77 0
-15 -78 0
-16 -79 0
-17 -80 0
-18 -81 0
-19 -82 0
-20 -83 0
-21 -84 0
-15 -92 0
-16 -93 0
-17 -94 0
-18 -95 0
-19 -96 0
-20 -97 0
-21 -98 0
-15 -99 0
-16 -100 0
-17 -101 0
-18 -102 0
-19 -103 0
-20 -104 0
-21 -105 0
-15 -106 0
-16 -107 0
-17 -108 0
-18 -109 0
-19 -110 0
-20 -111 0
-21 -112 0
-15 -120 0
-16 -121 0
-17 -122 0
-18 -123 0
-19 -124 0
-20 -125 0
-21 -126 0
-15 -141 0
-16 -142 0
-17 -143 0
-18 -144 0
-19 -145 0
-20 -146 0
-21 -147 0
-15 -148 0
-16 -149 0
-17 -150 0
-18 -151 0
-19 -152 0
-20 -153 0
-21 -154 0
-15 -155 0
-16 -156 0
-17 -157 0
-18 -158 0
-19 -159 0
-20 -160 0
-21 -161 0
-15 -183 0
-16 -184 0
-17 -185 0
-18 -186 0
-19 -187 0
-20 -188 0
-21 -189 0
-15 -197 0
-16 -198 0
-17 -199 0
-18 -200 0
-19 -201 0
-20 -202 0
-21 -203 0
-15 -204 0
-16 -205 0
-17 -206 0
-18 -207 0
-19 -208 0
-20 -209 0
-21 -210 0
-15 -218 0
-16 -219 0
-17 -220 0
-18 -221 0
-19 -222 0
-20 -223 0
-21 -224 0
-15 -225 0
-16 -226 0
-17 -227 0
-18 -228 0
-19 -229 0
-20 -230 0
-21 -231 0
-22 -29 0
-23 -30 0
-24 -31 0
-25 -32 0
-26 -33 0
-27 -34 0
-28 -35 0
-22 -36 0
-23 -37 0
-24 -38 0
-25 -39 0
-26 -40 0
-27 -41 0
-28 -42 0
-22 -43 0
-23 -44 0
-24 -45 0
-25 -46 0
-26 -47 0
-27 -48 0
-28 -49 0
-22 -78 0
-23 -79 0
-24 -80 0
-25 -81 0
-26 -82 0
-27 -83 0
-28 -84 0
-22 -113 0
-23 -114 0
-24 -115 0
-25 -116 0
-26 -117 0
-27 -118 0
-28 -119 0
-22 -134 0
-23 -135 0
-24 -136 0
-25 -137 0
-26 -138 0
-27 -139 0
-28 -140 0
-22 -141 0
-23 -142 0
-24 -143 0
-25 -144 0
-26 -145 0
-27 -146 0
-28 -147 0
-22 -176 0
-23 -177 0
-24 -178 0
-25 -179 0
-26 -180 0
-27 -181 0
-28 -182 0
-22 -183 0
-23 -184 0
-24 -185 0
-25 -186 0
-26 -187 0
-27 -188 0
-28 -189 0
-22 -190 0
-23 -191 0
-24 -192 0
-25 -193 0
-26 -194 0
-27 -195 0
-28 -196 0
-22 -204 0
-23 -205 0
-24 -206 0
-25 -207 0
-26 -208 0
-27 -209 0
-28 -210 0
-22 -211 0
-23 -212 0
-24 -213 0
-25 -214 0
-26 -215 0
-27 -216 0
-28 -217 0
-22 -225 0
-23 -226 0
-24 -227 0
-25 -228 0
-26 -229 0
-27 -230 0
-28 -231 0
-22 -232 0
-23 -233 0
-24 -234 0
-25 -235 0
-26 -236 0
-27 -237 0
-28 -238 0
-22 -239 0
-23 -240 0
-24 -241 0
-25 -242 0
-26 -243 0
-27 -244 0
-28 -245 0
-29 -36 0
-30 -37 0
-31 -38 0
-32 -39 0
-33 -40 0
-34 -41 0
-35 -42 0
-29 -57 0
-30 -58 0
-31 -59 0
-32 -60 0
-33 -61 0
-34 -62 0
-35 -63 0
-29 -71 0
-30 -72 0
-31 -73 0
-32 -74 0
-33 -75 0
-34 -76 0
-35 -77 0
-29 -78 0
-30 -79 0
-31 -80 0
-32 -81 0
-33 -82 0
-34 -83 0
-35 -84 0
-29 -92 0
-30 -93 0
-31 -94 0
-32 -95 0
-33 -96 0
-34 -97 0
-35 -98 0
-29 -99 0
-30 -100 0
-31 -101 0
-32 -102 0
-33 -103 0
-34 -104 0
-35 -105 0
-29 -106 0
-30 -107 0
-31 -108 0
-32 -109 0
-33 -110 0
-34 -111 0
-35 -112 0
-29 -113 0
-30 -114 0
-31 -115 0
-32 -116 0
-33 -117 0
-34 -118 0
-35 -119 0
-29 -120 0
-30 -121 0
-31 -122 0
-32 -123 0
-33 -124 0
-34 -125 0
-35 -126 0
-29 -141 0
-30 -142 0
-31 -143 0
-32 -144 0
-33 -145 0
-34 -146 0
-35 -147 0
-29 -155 0
-30 -156 0
-31 -157 0
-32 -158 0
-33 -159 0
-34 -160 0
-35 -161 0
-29 -197 0
-30 -198 0
-31 -199 0
-32 -200 0
-33 -201 0
-34 -202 0
-35 -203 0
-29 -204 0
-30 -205 0
-31 -206 0
-32 -207 0
-33 -208 0
-34 -209 0
-35 -210 0
-29 -211 0
-30 -212 0
-31 -213 0
-32 -214 0
-33 -215 0
-34 -216 0
-35 -217 0
-29 -218 0
-30 -219 0
-31 -220 0
-32 -221 0
-33 -222 0
-34 -223 0
-35 -224 0
-29 -239 0
-30 -240 0
-31 -241 0
-32 -242 0
-33 -243 0
-34 -244 0
-35 -245 0
-36 -50 0
-37 -51 0
-38 -52 0
-39 -53 0
-40 -54 0
-41 -55 0
-42 -56 0
-36 -71 0
-37 -72 0
-38 -73 0
-39 -74 0
-40 -75 0
-41 -76 0
-42 -77 0
-36 -92 0
-37 -93 0
-38 -94 0
-39 -95 0
-40 -96 0
-41 -97 0
-42 -98 0
-36 -99 0
-37 -100 0
-38 -101 0
-39 -102 0
-40 -103 0
-41 -104 0
-42 -105 0
-36 -113 0
-37 -114 0
-38 -115 0
-39 -116 0
-40 -117 0
-41 -118 0
-42 -119 0
-36 -120 0
-37 -121 0
-38 -122 0
-39 -123 0
-40 -124 0
-41 -125 0
-42 -126 0
-36 -127 0
-37 -128 0
-38 -129 0
-39 -130 0
-40 -131 0
-41 -132 0
-42 -133 0
-36 -141 0
-37 -142 0
-38 -143 0
-39 -144 0
-40 -145 0
-41 -146 0
-42 -147 0
-36 -148 0
-37 -149 0
-38 -150 0
-39 -151 0
-40 -152 0
-41 -153 0
-42 -154 0
-36 -155 0
-37 -156 0
-38 -157 0
-39 -158 0
-40 -159 0
-41 -160 0
-42 -161 0
-36 -162 0
-37 -163 0
-38 -164 0
-39 -165 0
-40 -166 0
-41 -167 0
-42 -168 0
-36 -183 0
-37 -184 0
-38 -185 0
-39 -186 0
-40 -187 0
-41 -188 0
-42 -189 0
-36 -190 0
-37 -191 0
-38 -192 0
-39 -193 0
-40 -194 0
-41 -195 0
-42 -196 0
-36 -204 0
-37 -205 0
-38 -206 0
-39 -207 0
-40 -208 0
-41 -209 0
-42 -210 0
-36 -211 0
-37 -212 0
-38 -213 0
-39 -214 0
-40 -215 0
-41 -216 0
-42 -217 0
-36 -218 0
-37 -219 0
-38 -220 0
-39 -221 0
-40 -222 0
-41 -223 0
-42 -224 0
-36 -225 0
-37 -226 0
-38 -227 0
-39 -228 0
-40 -229 0
-41 -230 0
-42 -231 0
-36 -232 0
-37 -233 0
-38 -234 0
-39 -235 0
-40 -236 0
-41 -237 0
-42 -238 0
-43 -57 0
-44 -58 0
-45 -59 0
-46 -60 0
-47 -61 0
-48 -62 0
-49 -63 0
-43 -71 0
-44 -72 0
-45 -73 0
-46 -74 0
-47 -75 0
-48 -76 0
-49 -77 0
-43 -78 0
-44 -79 0
-45 -80 0
-46 -81 0
-47 -82 0
-48 -83 0
-49 -84 0
-43 -120 0
-44 -121 0
-45 -122 0
-46 -123 0
-47 -124 0
-48 -125 0
-49 -126 0
-43 -127 0
-44 -128 0
-45 -129 0
-46 -130 0
-47 -131 0
-48 -132 0
-49 -133 0
-43 -141 0
-44 -142 0
-45 -143 0
-46 -144 0
-47 -145 0
-48 -146 0
-49 -147 0
-43 -148 0
-44 -149 0
-45 -150 0
-46 -151 0
-47 -152 0
-48 -153 0
-49 -154 0
-43 -155 0
-44 -156 0
-45 -157 0
-46 -158 0
-47 -159 0
-48 -160 0
-49 -161 0
-43 -169 0
-44 -170 0
-45 -171 0
-46 -172 0
-47 -173 0
-48 -174 0
-49 -175 0
-43 -176 0
-44 -177 0
-45 -178 0
-46 -179 0
-47 -180 0
-48 -181 0
-49 -182 0
-43 -197 0
-44 -198 0
-45 -199 0
-46 -200 0
-47 -201 0
-48 -202 0
-49 -203 0
-43 -204 0
-44 -205 0
-45 -206 0
-46 -207 0
-47 -208 0
-48 -209 0
-49 -210 0
-43 -211 0
-44 -212 0
-45 -213 0
-46 -214 0
-47 -215 0
-48 -216 0
-49 -217 0
-43 -218 0
-44 -219 0
-45 -220 0
-46 -221 0
-47 -222 0
-48 -223 0
-49 -224 0
-43 -239 0
-44 -240 0
-45 -241 0
-46 -242 0
-47 -243 0
-48 -244 0
-49 -245 0
-50 -85 0
-51 -86 0
-52 -87 0
-53 -88 0
-54 -89 0
-55 -90 0
-56 -91 0
-50 -92 0
-51 -93 0
-52 -94 0
-53 -95 0
-54 -96 0
-55 -97 0
-56 -98 0
-50 -99 0
-51 -100 0
-52 -101 0
-53 -102 0
-54 -103 0
-55 -104 0
-56 -105 0
-50 -113 0
-51 -114 0
-52 -115 0
-53 -116 0
-54 -117 0
-55 -118 0
-56 -119 0
-50 -120 0
-51 -121 0
-52 -122 0
-53 -123 0
-54 -124 0
-55 -125 0
-56 -126 0
-50 -127 0
-51 -128 0
-52 -129 0
-53 -130 0
-54 -131 0
-55 -132 0
-56 -133 0
-50 -162 0
-51 -163 0
-52 -164 0
-53 -165 0
-54 -166 0
-55 -167 0
-56 -168 0
-50 -169 0
-51 -170 0
-52 -171 0
-53 -172 0
-54 -173 0
-55 -174 0
-56 -175 0
-50 -183 0
-51 -184 0
-52 -185 0
-53 -186 0
-54 -187 0
-55 -188 0
-56 -189 0
-50 -190 0
-51 -191 0
-52 -192 0
-53 -193 0
-54 -194 0
-55 -195 0
-56 -196 0
-50 -211 0
-51 -212 0
-52 -213 0
-53 -214 0
-54 -215 0
-55 -216 0
-56 -217 0
-50 -218 0
-51 -219 0
-52 -220 0
-53 -221 0
-54 -222 0
-55 -223 0
-56 -224 0
-50 -225 0
-51 -226 0
-52 -227 0
-53 -228 0
-54 -229 0
-55 -230 0
-56 -231 0
-57 -92 0
-58 -93 0
-59 -94 0
-60 -95 0
-61 -96 0
-62 -97 0
-63 -98 0
-57 -99 0
-58 -100 0
-59 -101 0
-60 -102 0
-61 -103 0
-62 -104 0
-63 -105 0
-57 -106 0
-58 -107 0
-59 -108 0
-60 -109 0
-61 -110 0
-62 -111 0
-63 -112 0
-57 -113 0
-58 -114 0
-59 -115 0
-60 -116 0
-61 -117 0
-62 -118 0
-63 -119 0
-57 -169 0
-58 -170 0
-59 -171 0
-60 -172 0
-61 -173 0
-62 -174 0
-63 -175 0
-57 -176 0
-58 -177 0
-59 -178 0
-60 -179 0
-61 -180 0
-62 -181 0
-63 -182 0
-57 -183 0
-58 -184 0
-59 -185 0
-60 -186 0
-61 -187 0
-62 -188 0
-63 -189 0
-57 -190 0
-58 -191 0
-59 -192 0
-60 -193 0
-61 -194 0
-62 -195 0
-63 -196 0
-57 -197 0
-58 -198 0
-59 -199 0
-60 -200 0
-61 -201 0
-62 -202 0
-63 -203 0
-57 -225 0
-58 -226 0
-59 -227 0
-60 -228 0
-61 -229 0
-62 -230 0
-63 -231 0
-57 -239 0
-58 -240 0
-59 -241 0
-60 -242 0
-61 -243 0
-62 -244 0
-63 -245 0
-64 -99 0
-65 -100 0
-66 -101 0
-67 -102 0
-68 -103 0
-69 -104 0
-70 -105 0
-64 -113 0
-65 -114 0
-66 -115 0
-67 -116 0
-68 -117 0
-69 -118 0
-70 -119 0
-64 -120 0
-65 -121 0
-66 -122 0
-67 -123 0
-68 -124 0
-69 -125 0
-70 -126 0
-64 -134 0
-65 -135 0
-66 -136 0
-67 -137 0
-68 -138 0
-69 -139 0
-70 -140 0
-64 -141 0
-65 -142 0
-66 -143 0
-67 -144 0
-68 -145 0
-69 -146 0
-70 -147 0
-64 -169 0
-65 -170 0
-66 -171 0
-67 -172 0
-68 -173 0
-69 -174 0
-70 -175 0
-64 -183 0
-65 -184 0
-66 -185 0
-67 -186 0
-68 -187 0
-69 -188 0
-70 -189 0
-64 -190 0
-65 -191 0
-66 -192 0
-67 -193 0
-68 -194 0
-69 -195 0
-70 -196 0
-64 -211 0
-65 -212 0
-66 -213 0
-67 -214 0
-68 -215 0
-69 -216 0
-70 -217 0
-64 -218 0
-65 -219 0
-66 -220 0
-67 -221 0
-68 -222 0
-69 -223 0
-70 -224 0
-64 -232 0
-65 -233 0
-66 -234 0
-67 -235 0
-68 -236 0
-69 -237 0
-70 -238 0
-71 -92 0
-72 -93 0
-73 -94 0
-74 -95 0
-75 -96 0
-76 -97 0
-77 -98 0
-71 -99 0
-72 -100 0
-73 -101 0
-74 -102 0
-75 -103 0
-76 -104 0
-77 -105 0
-71 -106 0
-72 -107 0
-73 -108 0
-74 -109 0
-75 -110 0
-76 -111 0
-77 -112 0
-71 -113 0
-72 -114 0
-73 -115 0
-74 -116 0
-75 -117 0
-76 -118 0
-77 -119 0
-71 -120 0
-72 -121 0
-73 -122 0
-74 -123 0
-75 -124 0
-76 -125 0
-77 -126 0
-71 -134 0
-72 -135 0
-73 -136 0
-74 -137 0
-75 -138 0
-76 -139 0
-77 -140 0
-71 -141 0
-72 -142 0
-73 -143 0
-74 -144 0
-75 -145 0
-76 -146 0
-77 -147 0
-71 -148 0
-72 -149 0
-73 -150 0
-74 -151 0
-75 -152 0
-76 -153 0
-77 -154 0
-71 -162 0
-72 -163 0
-73 -164 0
-74 -165 0
-75 -166 0
-76 -167 0
-77 -168 0
-71 -169 0
-72 -170 0
-73 -171 0
-74 -172 0
-75 -173 0
-76 -174 0
-77 -175 0
-71 -176 0
-72 -177 0
-73 -178 0
-74 -179 0
-75 -180 0
-76 -181 0
-77 -182 0
-71 -183 0
-72 -184 0
-73 -185 0
-74 -186 0
-75 -187 0
-76 -188 0
-77 -189 0
-71 -190 0
-72 -191 0
-73 -192 0
-74 -193 0
-75 -194 0
-76 -195 0
-77 -196 0
-71 -218 0
-72 -219 0
-73 -220 0
-74 -221 0
-75 -222 0
-76 -223 0
-77 -224 0
-71 -225 0
-72 -226 0
-73 -227 0
-74 -228 0
-75 -229 0
-76 -230 0
-77 -231 0
-78 -99 0
-79 -100 0
-80 -101 0
-81 -102 0
-82 -103 0
-83 -104 0
-84 -105 0
-78 -120 0
-79 -121 0
-80 -122 0
-81 -123 0
-82 -124 0
-83 -125 0
-84 -126 0
-78 -134 0
-79 -135 0
-80 -136 0
-81 -137 0
-82 -138 0
-83 -139 0
-84 -140 0
-78 -141 0
-79 -142 0
-80 -143 0
-81 -144 0
-82 -145 0
-83 -146 0
-84 -147 0
-78 -148 0
-79 -149 0
-80 -150 0
-81 -151 0
-82 -152 0
-83 -153 0
-84 -154 0
-78 -155 0
-79 -156 0
-80 -157 0
-81 -158 0
-82 -159 0
-83 -160 0
-84 -161 0
-78 -169 0
-79 -170 0
-80 -171 0
-81 -172 0
-82 -173 0
-83 -174 0
-84 -175 0
-78 -197 0
-79 -198 0
-80 -199 0
-81 -200 0
-82 -201 0
-83 -202 0
-84 -203 0
-78 -204 0
-79 -205 0
-80 -206 0
-81 -207 0
-82 -208 0
-83 -209 0
-84 -210 0
-78 -211 0
-79 -212 0
-80 -213 0
-81 -214 0
-82 -215 0
-83 -216 0
-84 -217 0
-78 -232 0
-79 -233 0
-80 -234 0
-81 -235 0
-82 -236 0
-83 -237 0
-84 -238 0
-78 -239 0
-79 -240 0
-80 -241 0
-81 -242 0
-82 -243 0
-83 -244 0
-84 -245 0
-85 -99 0
-86 -100 0
-87 -101 0
-88 -102 0
-89 -103 0
-90 -104 0
-91 -105 0
-85 -106 0
-86 -107 0
-87 -108 0
-88 -109 0
-89 -110 0
-90 -111 0
-91 -112 0
-85 -120 0
-86 -121 0
-87 -122 0
-88 -123 0
-89 -124 0
-90 -125 0
-91 -126 0
-85 -134 0
-86 -135 0
-87 -136 0
-88 -137 0
-89 -138 0
-90 -139 0
-91 -140 0
-85 -155 0
-86 -156 0
-87 -157 0
-88 -158 0
-89 -159 0
-90 -160 0
-91 -161 0
-85 -176 0
-86 -177 0
-87 -178 0
-88 -179 0
-89 -180 0
-90 -181 0
-91 -182 0
-85 -204 0
-86 -205 0
-87 -206 0
-88 -207 0
-89 -208 0
-90 -209 0
-91 -210 0
-85 -211 0
-86 -212 0
-87 -213 0
-88 -214 0
-89 -215 0
-90 -216 0
-91 -217 0
-85 -218 0
-86 -219 0
-87 -220 0
-88 -221 0
-89 -222 0
-90 -223 0
-91 -224 0
-85 -225 0
-86 -226 0
-87 -227 0
-88 -228 0
-89 -229 0
-90 -230 0
-91 -231 0
-85 -239 0
-86 -240 0
-87 -241 0
-88 -242 0
-89 -243 0
-90 -244 0
-91 -245 0
-92 -120 0
-93 -121 0
-94 -122 0
-95 -123 0
-96 -124 0
-97 -125 0
-98 -126 0
-92 -127 0
-93 -128 0
-94 -129 0
-95 -130 0
-96 -131 0
-97 -132 0
-98 -133 0
-92 -134 0
-93 -135 0
-94 -136 0
-95 -137 0
-96 -138 0
-97 -139 0
-98 -140 0
-92 -141 0
-93 -142 0
-94 -143 0
-95 -144 0
-96 -145 0
-97 -146 0
-98 -147 0
-92 -162 0
-93 -163 0
-94 -164 0
-95 -165 0
-96 -166 0
-97 -167 0
-98 -168 0
-92 -176 0
-93 -177 0
-94 -178 0
-95 -179 0
-96 -180 0
-97 -181 0
-98 -182 0
-92 -211 0
-93 -212 0
-94 -213 0
-95 -214 0
-96 -215 0
-97 -216 0
-98 -217 0
-92 -218 0
-93 -219 0
-94 -220 0
-95 -221 0
-96 -222 0
-97 -223 0
-98 -224 0
-92 -232 0
-93 -233 0
-94 -234 0
-95 -235 0
-96 -236 0
-97 -237 0
-98 -238 0
-92 -239 0
-93 -240 0
-94 -241 0
-95 -242 0
-96 -243 0
-97 -244 0
-98 -245 0
-99 -113 0
-100 -114 0
-101 -115 0
-102 -116 0
-103 -117 0
-104 -118 0
-105 -119 0
-99 -155 0
-100 -156 0
-101 -157 0
-102 -158 0
-103 -159 0
-104 -160 0
-105 -161 0
-99 -162 0
-100 -163 0
-101 -164 0
-102 -165 0
-103 -166 0
-104 -167 0
-105 -168 0
-99 -169 0
-100 -170 0
-101 -171 0
-102 -172 0
-103 -173 0
-104 -174 0
-105 -175 0
-99 -176 0
-100 -177 0
-101 -178 0
-102 -179 0
-103 -180 0
-104 -181 0
-105 -182 0
-99 -183 0
-100 -184 0
-101 -185 0
-102 -186 0
-103 -187 0
-104 -188 0
-105 -189 0
-99 -225 0
-100 -226 0
-101 -227 0
-102 -228 0
-103 -229 0
-104 -230 0
-105 -231 0
-99 -239 0
-100 -240 0
-101 -241 0
-102 -242 0
-103 -243 0
-104 -244 0
-105 -245 0
-106 -113 0
-107 -114 0
-108 -115 0
-109 -116 0
-110 -117 0
-111 -118 0
-112 -119 0
-106 -127 0
-107 -128 0
-108 -129 0
-109 -130 0
-110 -131 0
-111 -132 0
-112 -133 0
-106 -141 0
-107 -142 0
-108 -143 0
-109 -144 0
-110 -145 0
-111 -146 0
-112 -147 0
-106 -155 0
-107 -156 0
-108 -157 0
-109 -158 0
-110 -159 0
-111 -160 0
-112 -161 0
-106 -162 0
-107 -163 0
-108 -164 0
-109 -165 0
-110 -166 0
-111 -167 0
-112 -168 0
-106 -169 0
-107 -170 0
-108 -171 0
-109 -172 0
-110 -173 0
-111 -174 0
-112 -175 0
-106 -176 0
-107 -177 0
-108 -178 0
-109 -179 0
-110 -180 0
-111 -181 0
-112 -182 0
-106 -183 0
-107 -184 0
-108 -185 0
-109 -186 0
-110 -187 0
-111 -188 0
-112 -189 0
-106 -197 0
-107 -198 0
-108 -199 0
-109 -200 0
-110 -201 0
-111 -202 0
-112 -203 0
-106 -218 0
-107 -219 0
-108 -220 0
-109 -221 0
-110 -222 0
-111 -223 0
-112 -224 0
-106 -225 0
-107 -226 0
-108 -227 0
-109 -228 0
-110 -229 0
-111 -230 0
-112 -231 0
-106 -239 0
-107 -240 0
-108 -241 0
-109 -242 0
-110 -243 0
-111 -244 0
-112 -245 0
-113 -120 0
-114 -121 0
-115 -122 0
-116 -123 0
-117 -124 0
-118 -125 0
-119 -126 0
-113 -127 0
-114 -128 0
-115 -129 0
-116 -130 0
-117 -131 0
-118 -132 0
-119 -133 0
-113 -141 0
-114 -142 0
-115 -143 0
-116 -144 0
-117 -145 0
-118 -146 0
-119 -147 0
-113 -176 0
-114 -177 0
-115 -178 0
-116 -179 0
-117 -180 0
-118 -181 0
-119 -182 0
-113 -204 0
-114 -205 0
-115 -206 0
-116 -207 0
-117 -208 0
-118 -209 0
-119 -210 0
-113 -218 0
-114 -219 0
-115 -220 0
-116 -221 0
-117 -222 0
-118 -223 0
-119 -224 0
-113 -225 0
-114 -226 0
-115 -227 0
-116 -228 0
-117 -229 0
-118 -230 0
-119 -231 0
-113 -239 0
-114 -240 0
-115 -241 0
-116 -242 0
-117 -243 0
-118 -244 0
-119 -245 0
-120 -127 0
-121 -128 0
-122 -129 0
-123 -130 0
-124 -131 0
-125 -132 0
-126 -133 0
-120 -134 0
-121 -135 0
-122 -136 0
-123 -137 0
-124 -138 0
-125 -139 0
-126 -140 0
-120 -155 0
-121 -156 0
-122 -157 0
-123 -158 0
-124 -159 0
-125 -160 0
-126 -161 0
-120 -176 0
-121 -177 0
-122 -178 0
-123 -179 0
-124 -180 0
-125 -181 0
-126 -182 0
-120 -190 0
-121 -191 0
-122 -192 0
-123 -193 0
-124 -194 0
-125 -195 0
-126 -196 0
-120 -225 0
-121 -226 0
-122 -227 0
-123 -228 0
-124 -229 0
-125 -230 0
-126 -231 0
-120 -239 0
-121 -240 0
-122 -241 0
-123 -242 0
-124 -243 0
-125 -244 0
-126 -245 0
-127 -134 0
-128 -135 0
-129 -136 0
-130 -137 0
-131 -138 0
-132 -139 0
-133 -140 0
-127 -176 0
-128 -177 0
-129 -178 0
-130 -179 0
-131 -180 0
-132 -181 0
-133 -182 0
-127 -197 0
-128 -198 0
-129 -199 0
-130 -200 0
-131 -201 0
-132 -202 0
-133 -203 0
-127 -239 0
-128 -240 0
-129 -241 0
-130 -242 0
-131 -243 0
-132 -244 0
-133 -245 0
-134 -148 0
-135 -149 0
-136 -150 0
-137 -151 0
-138 -152 0
-139 -153 0
-140 -154 0
-134 -155 0
-135 -156 0
-136 -157 0
-137 -158 0
-138 -159 0
-139 -160 0
-140 -161 0
-134 -190 0
-135 -191 0
-136 -192 0
-137 -193 0
-138 -194 0
-139 -195 0
-140 -196 0
-134 -211 0
-135 -212 0
-136 -213 0
-137 -214 0
-138 -215 0
-139 -216 0
-140 -217 0
-134 -218 0
-135 -219 0
-136 -220 0
-137 -221 0
-138 -222 0
-139 -223 0
-140 -224 0
-134 -225 0
-135 -226 0
-136 -227 0
-137 -228 0
-138 -229 0
-139 -230 0
-140 -231 0
-134 -239 0
-135 -240 0
-136 -241 0
-137 -242 0
-138 -243 0
-139 -244 0
-140 -245 0
-141 -148 0
-142 -149 0
-143 -150 0
-144 -151 0
-145 -152 0
-146 -153 0
-147 -154 0
-141 -155 0
-142 -156 0
-143 -157 0
-144 -158 0
-145 -159 0
-146 -160 0
-147 -161 0
-141 -169 0
-142 -170 0
-143 -171 0
-144 -172 0
-145 -173 0
-146 -174 0
-147 -175 0
-141 -176 0
-142 -177 0
-143 -178 0
-144 -179 0
-145 -180 0
-146 -181 0
-147 -182 0
-141 -190 0
-142 -191 0
-143 -192 0
-144 -193 0
-145 -194 0
-146 -195 0
-147 -196 0
-141 -197 0
-142 -198 0
-143 -199 0
-144 -200 0
-145 -201 0
-146 -202 0
-147 -203 0
-141 -211 0
-142 -212 0
-143 -213 0
-144 -214 0
-145 -215 0
-146 -216 0
-147 -217 0
-141 -218 0
-142 -219 0
-143 -220 0
-144 -221 0
-145 -222 0
-146 -223 0
-147 -224 0
-141 -239 0
-142 -240 0
-143 -241 0
-144 -242 0
-145 -243 0
-146 -244 0
-147 -245 0
-148 -162 0
-149 -163 0
-150 -164 0
-151 -165 0
-152 -166 0
-153 -167 0
-154 -168 0
-148 -176 0
-149 -177 0
-150 -178 0
-151 -179 0
-152 -180 0
-153 -181 0
-154 -182 0
-148 -204 0
-149 -205 0
-150 -206 0
-151 -207 0
-152 -208 0
-153 -209 0
-154 -210 0
-155 -176 0
-156 -177 0
-157 -178 0
-158 -179 0
-159 -180 0
-160 -181 0
-161 -182 0
-155 -183 0
-156 -184 0
-157 -185 0
-158 -186 0
-159 -187 0
-160 -188 0
-161 -189 0
-155 -190 0
-156 -191 0
-157 -192 0
-158 -193 0
-159 -194 0
-160 -195 0
-161 -196 0
-155 -204 0
-156 -205 0
-157 -206 0
-158 -207 0
-159 -208 0
-160 -209 0
-161 -210 0
-155 -211 0
-156 -212 0
-157 -213 0
-158 -214 0
-159 -215 0
-160 -216 0
-161 -217 0
-155 -225 0
-156 -226 0
-157 -227 0
-158 -228 0
-159 -229 0
-160 -230 0
-161 -231 0
-155 -232 0
-156 -233 0
-157 -234 0
-158 -235 0
-159 -236 0
-160 -237 0
-161 -238 0
-155 -239 0
-156 -240 0
-157 -241 0
-158 -242 0
-159 -243 0
-160 -244 0
-161 -245 0
-162 -218 0
-163 -219 0
-164 -220 0
-165 -221 0
-166 -222 0
-167 -223 0
-168 -224 0
-162 -232 0
-163 -233 0
-164 -234 0
-165 -235 0
-166 -236 0
-167 -237 0
-168 -238 0
-169 -176 0
-170 -177 0
-171 -178 0
-172 -179 0
-173 -180 0
-174 -181 0
-175 -182 0
-169 -190 0
-170 -191 0
-171 -192 0
-172 -193 0
-173 -194 0
-174 -195 0
-175 -196 0
-169 -197 0
-170 -198 0
-171 -199 0
-172 -200 0
-173 -201 0
-174 -202 0
-175 -203 0
-169 -204 0
-170 -205 0
-171 -206 0
-172 -207 0
-173 -208 0
-174 -209 0
-175 -210 0
-169 -218 0
-170 -219 0
-171 -220 0
-172 -221 0
-173 -222 0
-174 -223 0
-175 -224 0
-169 -239 0
-170 -240 0
-171 -241 0
-172 -242 0
-173 -243 0
-174 -244 0
-175 -245 0
-176 -197 0
-177 -198 0
-178 -199 0
-179 -200 0
-180 -201 0
-181 -202 0
-182 -203 0
-176 -211 0
-177 -212 0
-178 -213 0
-179 -214 0
-180 -215 0
-181 -216 0
-182 -217 0
-176 -218 0
-177 -219 0
-178 -220 0
-179 -221 0
-180 -222 0
-181 -223 0
-182 -224 0
-183 -204 0
-184 -205 0
-185 -206 0
-186 -207 0
-187 -208 0
-188 -209 0
-189 -210 0
-183 -218 0
-184 -219 0
-185 -220 0
-186 -221 0
-187 -222 0
-188 -223 0
-189 -224 0
-190 -197 0
-191 -198 0
-192 -199 0
-193 -200 0
-194 -201 0
-195 -202 0
-196 -203 0
-190 -218 0
-191 -219 0
-192 -220 0
-193 -221 0
-194 -222 0
-195 -223 0
-196 -224 0
-190 -225 0
-191 -226 0
-192 -227 0
-193 -228 0
-194 -229 0
-195 -230 0
-196 -231 0
-197 -225 0
-198 -226 0
-199 -227 0
-200 -228 0
-201 -229 0
-202 -230 0
-203 -231 0
-197 -239 0
-198 -240 0
-199 -241 0
-200 -242 0
-201 -243 0
-202 -244 0
-203 -245 0
-204 -225 0
-205 -226 0
-206 -227 0
-207 -228 0
-208 -229 0
-209 -230 0
-210 -231 0
-204 -232 0
-205 -233 0
-206 -234 0
-207 -235 0
-208 -236 0
-209 -237 0
-210 -238 0
-211 -232 0
-212 -233 0
-213 -234 0
-214 -235 0
-215 -236 0
-216 -237 0
-217 -238 0
-218 -232 0
-219 -233 0
-220 -234 0
-221 -235 0
-222 -236 0
-223 -237 0
-224 -238 0
-218 -239 0
-219 -240 0
-220 -241 0
-221 -242 0
-222 -243 0
-223 -244 0
-224 -245 0
-225 -232 0
-226 -233 0
-227 -234 0
-228 -235 0
-229 -236 0
-230 -237 0
-231 -238 0
-225 -239 0
-226 -240 0
-227 -241 0
-228 -242 0
-229 -243 0
-230 -244 0
-231 -245 0
-232 -239 0
-233 -240 0
-234 -241 0
-235 -242 0
-236 -243 0
-237 -244 0
-238 -245 0
